
Gurobi 6.5.2 (linux64) logging started Mon Aug 29 10:57:51 2016

Optimize a model with 21 rows, 41 columns and 93 nonzeros
Coefficient statistics:
  Matrix range    [1e+00, 2e+00]
  Objective range [1e+01, 8e+01]
  Bounds range    [1e+00, 1e+00]
  RHS range       [1e+00, 1e+00]
Found heuristic solution: objective 321
Presolve removed 7 rows and 3 columns
Presolve time: 0.00s
Presolved: 14 rows, 38 columns, 80 nonzeros
Variable types: 0 continuous, 38 integer (38 binary)

Root relaxation: objective 2.540000e+02, 14 iterations, 0.00 seconds

    Nodes    |    Current Node    |     Objective Bounds      |     Work
 Expl Unexpl |  Obj  Depth IntInf | Incumbent    BestBd   Gap | It/Node Time

     0     0  254.00000    0    4  321.00000  254.00000  20.9%     -    0s
H    0     0                     314.0000000  254.00000  19.1%     -    0s
H    0     0                     285.0000000  254.00000  10.9%     -    0s
H    0     0                     259.0000000  254.00000  1.93%     -    0s
H    0     0                     254.0000000  254.00000  0.00%     -    0s

Explored 0 nodes (14 simplex iterations) in 0.00 seconds
Thread count was 8 (of 8 available processors)

Optimal solution found (tolerance 1.00e-04)
Best objective 2.540000000000e+02, best bound 2.540000000000e+02, gap 0.0%
